Route 1: 0 54 5 69 61 41 30 64 50 33 0
Route 2: 0 29 25 96 34 48 86 57 73 95 0
Route 3: 0 58 55 80 60 70 97 0
Route 4: 0 32 43 20 93 84 74 52 68 0
Route 5: 0 37 90 4 51 22 89 85 19 75 100 63 0
Route 6: 0 2 76 78 24 27 39 83 72 1 31 0
Route 7: 0 12 79 44 42 46 36 38 18 7 47 9 0
Route 8: 0 53 94 59 40 21 14 81 45 67 92 10 98 0
Route 9: 0 62 71 26 3 35 66 77 91 99 65 0
Route 10: 0 28 15 23 8 11 87 82 56 0
Route 11: 0 17 6 49 88 16 13 0
